# 25
469 192
473 225
493 115
311 642
646 844
83 240
475 718
848 871
971 324
601 509
17 629
34 104
457 639
102 278
776 28
319 414
437 912
235 992
245 304
806 692
22 112
836 748
658 764
446 803
150 405
